NAME : instances/diverse-tsp/instance-14.tsp
COMMENT : No Comment
TYPE : TSP
DIMENSION: 48
EDGE_WEIGHT_TYPE : EUC_2D
NODE_COORD_SECTION
1 649 1248 
2 1796 358 
3 1451 581 
4 1860 1669 
5 574 611 
6 957 1779 
7 1513 547 
8 1257 1322 
9 313 686 
10 720 922 
11 1006 981 
12 782 1871 
13 1637 1920 
14 922 1770 
15 1552 109 
16 1787 829 
17 1295 652 
18 1659 791 
19 1901 1772 
20 881 1992 
21 1792 1857 
22 423 1524 
23 1246 1187 
24 1756 1751 
25 1869 47 
26 990 1154 
27 689 226 
28 835 873 
29 1064 1223 
30 1384 1894 
31 71 1981 
32 372 1294 
33 1313 565 
34 528 457 
35 1678 1849 
36 1627 979 
37 158 1565 
38 649 394 
39 387 1023 
40 40 243 
41 710 1410 
42 323 785 
43 1105 1295 
44 116 1305 
45 1527 392 
46 599 789 
47 1678 809 
48 1971 62 
EOF
